p cnf 10 296
1 0
-2 0
-3 0
-4 0
-5 0
-6 0
7 0
8 0
-9 0
-10 0
11 0
-12 0
13 0
-14 0
15 0
-16 0
-17 0
18 0
19 0
-20 0
-21 0
22 0
-23 0
-24 0
1 2 3 4 5 6 0
1 2 3 4 5 30 0
1 2 3 4 29 6 0
1 2 3 4 29 30 0
1 2 3 28 5 6 0
1 2 3 28 5 30 0
1 2 3 28 29 6 0
1 2 3 28 29 30 0
1 2 27 4 5 6 0
1 2 27 4 5 30 0
1 2 27 4 29 6 0
1 2 27 4 29 30 0
1 2 27 28 5 6 0
1 2 27 28 5 30 0
1 2 27 28 29 6 0
1 2 27 28 29 30 0
1 26 3 4 5 6 0
1 26 3 4 5 30 0
1 26 3 4 29 6 0
1 26 3 4 29 30 0
1 26 3 28 5 6 0
1 26 3 28 5 30 0
1 26 3 28 29 6 0
1 26 3 28 29 30 0
1 26 27 4 5 6 0
1 26 27 4 5 30 0
1 26 27 4 29 6 0
1 26 27 4 29 30 0
1 26 27 28 5 6 0
1 26 27 28 5 30 0
1 26 27 28 29 6 0
1 26 27 28 29 30 0
25 2 3 4 5 6 0
25 2 3 4 5 30 0
25 2 3 4 29 6 0
25 2 3 4 29 30 0
25 2 3 28 5 6 0
25 2 3 28 5 30 0
25 2 3 28 29 6 0
25 2 3 28 29 30 0
25 2 27 4 5 6 0
25 2 27 4 5 30 0
25 2 27 4 29 6 0
25 2 27 4 29 30 0
25 2 27 28 5 6 0
25 2 27 28 5 30 0
25 2 27 28 29 6 0
25 2 27 28 29 30 0
25 26 3 4 5 6 0
25 26 3 4 5 30 0
25 26 3 4 29 6 0
25 26 3 4 29 30 0
25 26 3 28 5 6 0
25 26 3 28 5 30 0
25 26 3 28 29 6 0
25 26 3 28 29 30 0
25 26 27 4 5 6 0
25 26 27 4 5 30 0
25 26 27 4 29 6 0
25 26 27 4 29 30 0
25 26 27 28 5 6 0
25 26 27 28 5 30 0
25 26 27 28 29 6 0
25 26 27 28 29 30 0
7 8 9 10 11 12 0
7 8 9 10 11 30 0
7 8 9 10 29 12 0
7 8 9 10 29 30 0
7 8 9 28 11 12 0
7 8 9 28 11 30 0
7 8 9 28 29 12 0
7 8 9 28 29 30 0
7 8 27 10 11 12 0
7 8 27 10 11 30 0
7 8 27 10 29 12 0
7 8 27 10 29 30 0
7 8 27 28 11 12 0
7 8 27 28 11 30 0
7 8 27 28 29 12 0
7 8 27 28 29 30 0
7 26 9 10 11 12 0
7 26 9 10 11 30 0
7 26 9 10 29 12 0
7 26 9 10 29 30 0
7 26 9 28 11 12 0
7 26 9 28 11 30 0
7 26 9 28 29 12 0
7 26 9 28 29 30 0
7 26 27 10 11 12 0
7 26 27 10 11 30 0
7 26 27 10 29 12 0
7 26 27 10 29 30 0
7 26 27 28 11 12 0
7 26 27 28 11 30 0
7 26 27 28 29 12 0
7 26 27 28 29 30 0
25 8 9 10 11 12 0
25 8 9 10 11 30 0
25 8 9 10 29 12 0
25 8 9 10 29 30 0
25 8 9 28 11 12 0
25 8 9 28 11 30 0
25 8 9 28 29 12 0
25 8 9 28 29 30 0
25 8 27 10 11 12 0
25 8 27 10 11 30 0
25 8 27 10 29 12 0
25 8 27 10 29 30 0
25 8 27 28 11 12 0
25 8 27 28 11 30 0
25 8 27 28 29 12 0
25 8 27 28 29 30 0
25 26 9 10 11 12 0
25 26 9 10 11 30 0
25 26 9 10 29 12 0
25 26 9 10 29 30 0
25 26 9 28 11 12 0
25 26 9 28 11 30 0
25 26 9 28 29 12 0
25 26 9 28 29 30 0
25 26 27 10 11 12 0
25 26 27 10 11 30 0
25 26 27 10 29 12 0
25 26 27 10 29 30 0
25 26 27 28 11 12 0
25 26 27 28 11 30 0
25 26 27 28 29 12 0
25 26 27 28 29 30 0
13 14 15 16 17 18 0
13 14 15 16 17 30 0
13 14 15 16 29 18 0
13 14 15 16 29 30 0
13 14 15 28 17 18 0
13 14 15 28 17 30 0
13 14 15 28 29 18 0
13 14 15 28 29 30 0
13 14 27 16 17 18 0
13 14 27 16 17 30 0
13 14 27 16 29 18 0
13 14 27 16 29 30 0
13 14 27 28 17 18 0
13 14 27 28 17 30 0
13 14 27 28 29 18 0
13 14 27 28 29 30 0
13 26 15 16 17 18 0
13 26 15 16 17 30 0
13 26 15 16 29 18 0
13 26 15 16 29 30 0
13 26 15 28 17 18 0
13 26 15 28 17 30 0
13 26 15 28 29 18 0
13 26 15 28 29 30 0
13 26 27 16 17 18 0
13 26 27 16 17 30 0
13 26 27 16 29 18 0
13 26 27 16 29 30 0
13 26 27 28 17 18 0
13 26 27 28 17 30 0
13 26 27 28 29 18 0
13 26 27 28 29 30 0
25 14 15 16 17 18 0
25 14 15 16 17 30 0
25 14 15 16 29 18 0
25 14 15 16 29 30 0
25 14 15 28 17 18 0
25 14 15 28 17 30 0
25 14 15 28 29 18 0
25 14 15 28 29 30 0
25 14 27 16 17 18 0
25 14 27 16 17 30 0
25 14 27 16 29 18 0
25 14 27 16 29 30 0
25 14 27 28 17 18 0
25 14 27 28 17 30 0
25 14 27 28 29 18 0
25 14 27 28 29 30 0
25 26 15 16 17 18 0
25 26 15 16 17 30 0
25 26 15 16 29 18 0
25 26 15 16 29 30 0
25 26 15 28 17 18 0
25 26 15 28 17 30 0
25 26 15 28 29 18 0
25 26 15 28 29 30 0
25 26 27 16 17 18 0
25 26 27 16 17 30 0
25 26 27 16 29 18 0
25 26 27 16 29 30 0
25 26 27 28 17 18 0
25 26 27 28 17 30 0
25 26 27 28 29 18 0
25 26 27 28 29 30 0
19 20 21 22 23 24 0
19 20 21 22 23 30 0
19 20 21 22 29 24 0
19 20 21 22 29 30 0
19 20 21 28 23 24 0
19 20 21 28 23 30 0
19 20 21 28 29 24 0
19 20 21 28 29 30 0
19 20 27 22 23 24 0
19 20 27 22 23 30 0
19 20 27 22 29 24 0
19 20 27 22 29 30 0
19 20 27 28 23 24 0
19 20 27 28 23 30 0
19 20 27 28 29 24 0
19 20 27 28 29 30 0
19 26 21 22 23 24 0
19 26 21 22 23 30 0
19 26 21 22 29 24 0
19 26 21 22 29 30 0
19 26 21 28 23 24 0
19 26 21 28 23 30 0
19 26 21 28 29 24 0
19 26 21 28 29 30 0
19 26 27 22 23 24 0
19 26 27 22 23 30 0
19 26 27 22 29 24 0
19 26 27 22 29 30 0
19 26 27 28 23 24 0
19 26 27 28 23 30 0
19 26 27 28 29 24 0
19 26 27 28 29 30 0
25 20 21 22 23 24 0
25 20 21 22 23 30 0
25 20 21 22 29 24 0
25 20 21 22 29 30 0
25 20 21 28 23 24 0
25 20 21 28 23 30 0
25 20 21 28 29 24 0
25 20 21 28 29 30 0
25 20 27 22 23 24 0
25 20 27 22 23 30 0
25 20 27 22 29 24 0
25 20 27 22 29 30 0
25 20 27 28 23 24 0
25 20 27 28 23 30 0
25 20 27 28 29 24 0
25 20 27 28 29 30 0
25 26 21 22 23 24 0
25 26 21 22 23 30 0
25 26 21 22 29 24 0
25 26 21 22 29 30 0
25 26 21 28 23 24 0
25 26 21 28 23 30 0
25 26 21 28 29 24 0
25 26 21 28 29 30 0
25 26 27 22 23 24 0
25 26 27 22 23 30 0
25 26 27 22 29 24 0
25 26 27 22 29 30 0
25 26 27 28 23 24 0
25 26 27 28 23 30 0
25 26 27 28 29 24 0
25 26 27 28 29 30 0
-25 -26 0
-25 -27 0
-25 -28 0
-25 -29 0
-25 -30 0
-26 -27 0
-26 -28 0
-26 -29 0
-26 -30 0
-27 -28 0
-27 -29 0
-27 -30 0
-28 -29 0
-28 -30 0
-29 -30 0
25 26 27 28 29 30 0
